<number of tasks>
50

<cycle time>
1000

<order strength>
0.597


<task times>
1 239
2 618
3 322
4 404
5 735
6 597
7 266
8 770
9 492
10 579
11 533
12 335
13 869
14 349
15 482
16 436
17 493
18 140
19 503
20 343
21 424
22 406
23 450
24 593
25 236
26 471
27 338
28 423
29 521
30 438
31 419
32 371
33 263
34 549
35 421
36 284
37 645
38 296
39 541
40 286
41 459
42 464
43 472
44 568
45 377
46 388
47 424
48 363
49 531
50 564

<precedence relations>
1,7
2,7
3,7
4,7
5,6
5,8
5,9
5,10
5,11
6,31
7,12
7,13
7,14
7,15
7,17
8,40
9,16
9,17
9,18
10,16
10,18
11,16
11,20
12,19
12,20
12,23
12,28
13,19
13,28
13,29
14,19
14,20
14,29
15,19
15,32
16,22
16,23
17,19
17,27
18,19
18,20
18,21
18,26
19,31
20,40
21,40
22,25
22,27
23,24
23,26
24,31
25,28
25,32
26,29
27,28
27,30
28,31
29,38
29,39
30,32
31,33
31,34
31,35
31,36
31,37
31,48
32,38
32,39
33,50
35,41
35,49
37,47
38,40
39,41
39,42
40,43
40,44
40,45
40,46
42,47
44,48
44,49
44,50
45,48
46,48

<end>
